
(set-logic ALL) 

(declare-datatype MyList ((Nil) (Cons (head Real) (tail MyList)) )) 
(declare-fun l0 () MyList) 
(declare-fun l1 () MyList) 
(declare-fun l2 () MyList) 
(declare-fun l3 () MyList) 
(declare-fun i0 () Real) 
(declare-fun i1 () Real) 
(assert (or (is-Cons l3) (= l1 Nil) (= l1 Nil) (is-Nil l2)) )
(assert (= l1 Nil) )
(assert (or (= l1 Nil) (is-Cons Nil) (is-Cons Nil) (= l3 Nil)) )
(assert (and (is-Nil l1) (is-Nil Nil)) )
(assert (not (= l3 Nil)) )
(assert (and (is-Cons Nil) (is-Cons Nil) (is-Cons Nil) (= l3 Nil)) )
(assert (is-Cons Nil) )
(assert (= l3 Nil) )
(check-sat)
